W=8;
H=9;

MAX_TIME=44;
MAX_TRACKS=13;

TARGET=(5,8);

TRAINS=[(5,7,LEFT),(8,4,LEFT),(2,4,LEFT)];
DECOYS=[];

INIT_POS=[
(2,2,DSWITCH_T_D_R),
(2,3,SWITCH_R_L_D),
(2,4,STRAIGHT_RL),
(2,7,STRAIGHT_RL),
(3,2,DSWITCH_D_T_R),
(3,3,CORNER_TL),
(5,2,SWITCH_D_T_R),
(5,6,ESWITCH_L_R_D),
(5,7,STRAIGHT_RL),
(5,8,STRAIGHT_RL),
(7,2,DSWITCH_T_D_R),
(7,3,CORNER_DL),
(8,2,DSWITCH_D_T_R),
(8,3,SWITCH_R_L_T),
(8,4,STRAIGHT_RL),
(8,7,STRAIGHT_RL),
];
TUNNEL_PAIRS=[
  (8, 8, LEFT, 9, 2, TOP),
  (1, 2, DOWN, 2, 8, LEFT),
];

GATES=[];
ACTIVATIONS=[
(2,7,1),
(8,7,2),
];

DSWITCHES=[
(2,2,2),
(3,2,2),
(7,2,1),
(8,2,1),
];
STATIONS=[];
